wmc_benchmarks/WMCBenchSingleMea/su2random_nativegates_ibm_qiskit_opt0_3.qasm.cnf
p cnf 322 1287
c p weight 9 1 0
c p weight -9 1 0
c p weight 10 0 0
c p weight -10 1 0
c p weight -7 1 0
c p weight 7 -1 0
c p weight 13 6.12323399573676603586882014729198302312846062338790031898128063403419218957424163818359375E-17 0
c p weight -13 1 0
c p weight 14 1 0
c p weight -14 1 0
c p weight -11 1 0
c p weight 11 -1 0
c p weight 17 -0.1335612396259832357348074083347455598413944244384765625 0
c p weight -17 1 0
c p weight 18 0.99104056186897349078890329110436141490936279296875 0
c p weight -18 1 0
c p weight -15 1 0
c p weight 15 -1 0
c p weight 21 6.12323399573676603586882014729198302312846062338790031898128063403419218957424163818359375E-17 0
c p weight -21 1 0
c p weight 22 1 0
c p weight -22 1 0
c p weight -19 1 0
c p weight 19 -1 0
c p weight 25 -1 0
c p weight -25 1 0
c p weight 26 3.673940397442059375002259206809000622711899723162043418511757408850826323032379150390625E-16 0
c p weight -26 1 0
c p weight -23 1 0
c p weight 23 -1 0
c p weight 29 -0.007515356911958460950362592711826437152922153472900390625 0
c p weight -29 1 0
c p weight 30 -0.999971759306474528017361080856062471866607666015625 0
c p weight -30 1 0
c p weight -27 1 0
c p weight 27 -1 0
c p weight 33 1 0
c p weight -33 1 0
c p weight 34 0 0
c p weight -34 1 0
c p weight -31 1 0
c p weight 31 -1 0
c p weight 37 6.12323399573676603586882014729198302312846062338790031898128063403419218957424163818359375E-17 0
c p weight -37 1 0
c p weight 38 1 0
c p weight -38 1 0
c p weight -35 1 0
c p weight 35 -1 0
c p weight 41 -0.991511476394992374849834959604777395725250244140625 0
c p weight -41 1 0
c p weight 42 -0.130019199263118168108377403768827207386493682861328125 0
c p weight -42 1 0
c p weight -39 1 0
c p weight 39 -1 0
c p weight 45 6.12323399573676603586882014729198302312846062338790031898128063403419218957424163818359375E-17 0
c p weight -45 1 0
c p weight 46 1 0
c p weight -46 1 0
c p weight -43 1 0
c p weight 43 -1 0
c p weight 49 -1 0
c p weight -49 1 0
c p weight 50 3.673940397442059375002259206809000622711899723162043418511757408850826323032379150390625E-16 0
c p weight -50 1 0
c p weight -47 1 0
c p weight 47 -1 0
c p weight 53 -0.99995600138413631707834383632871322333812713623046875 0
c p weight -53 1 0
c p weight 54 0.00938058078421916304023842059223170508630573749542236328125 0
c p weight -54 1 0
c p weight -51 1 0
c p weight 51 -1 0
c p weight -55 1 0
c p weight 55 -1 0
c p weight 60 1 0
c p weight -60 1 0
c p weight 61 0 0
c p weight -61 1 0
c p weight -58 1 0
c p weight 58 -1 0
c p weight 64 6.12323399573676603586882014729198302312846062338790031898128063403419218957424163818359375E-17 0
c p weight -64 1 0
c p weight 65 1 0
c p weight -65 1 0
c p weight -62 1 0
c p weight 62 -1 0
c p weight 68 0.6676589223122142424671210392261855304241180419921875 0
c p weight -68 1 0
c p weight 69 0.74446730180505082952180373467854224145412445068359375 0
c p weight -69 1 0
c p weight -66 1 0
c p weight 66 -1 0
c p weight 72 6.12323399573676603586882014729198302312846062338790031898128063403419218957424163818359375E-17 0
c p weight -72 1 0
c p weight 73 1 0
c p weight -73 1 0
c p weight -70 1 0
c p weight 70 -1 0
c p weight 76 -1 0
c p weight -76 1 0
c p weight 77 3.673940397442059375002259206809000622711899723162043418511757408850826323032379150390625E-16 0
c p weight -77 1 0
c p weight -74 1 0
c p weight 74 -1 0
c p weight 80 0.1576963200385755603516457767909741960465908050537109375 0
c p weight -80 1 0
c p weight 81 0.98748765594628629127527119635487906634807586669921875 0
c p weight -81 1 0
c p weight -78 1 0
c p weight 78 -1 0
c p weight -82 1 0
c p weight 82 -1 0
c p weight 87 1 0
c p weight -87 1 0
c p weight 88 0 0
c p weight -88 1 0
c p weight -85 1 0
c p weight 85 -1 0
c p weight 91 6.12323399573676603586882014729198302312846062338790031898128063403419218957424163818359375E-17 0
c p weight -91 1 0
c p weight 92 1 0
c p weight -92 1 0
c p weight -89 1 0
c p weight 89 -1 0
c p weight 95 -0.3205694895363857543912899927818216383457183837890625 0
c p weight -95 1 0
c p weight 96 -0.94722500092553563177943942719139158725738525390625 0
c p weight -96 1 0
c p weight -93 1 0
c p weight 93 -1 0
c p weight 99 6.12323399573676603586882014729198302312846062338790031898128063403419218957424163818359375E-17 0
c p weight -99 1 0
c p weight 100 1 0
c p weight -100 1 0
c p weight -97 1 0
c p weight 97 -1 0
c p weight 103 -1 0
c p weight -103 1 0
c p weight 104 3.673940397442059375002259206809000622711899723162043418511757408850826323032379150390625E-16 0
c p weight -104 1 0
c p weight -101 1 0
c p weight 101 -1 0
c p weight 107 0.849871234472090453238024565507657825946807861328125 0
c p weight -107 1 0
c p weight 108 0.526990402964688797737835557200014591217041015625 0
c p weight -108 1 0
c p weight -105 1 0
c p weight 105 -1 0
c p weight -109 1 0
c p weight 109 -1 0
c p weight 114 1 0
c p weight -114 1 0
c p weight 115 0 0
c p weight -115 1 0
c p weight -112 1 0
c p weight 112 -1 0
c p weight 118 6.12323399573676603586882014729198302312846062338790031898128063403419218957424163818359375E-17 0
c p weight -118 1 0
c p weight 119 1 0
c p weight -119 1 0
c p weight -116 1 0
c p weight 116 -1 0
c p weight 122 -0.06611814736078959475751304353252635337412357330322265625 0
c p weight -122 1 0
c p weight 123 0.99781180118776757748122463453910313546657562255859375 0
c p weight -123 1 0
c p weight -120 1 0
c p weight 120 -1 0
c p weight 126 6.12323399573676603586882014729198302312846062338790031898128063403419218957424163818359375E-17 0
c p weight -126 1 0
c p weight 127 1 0
c p weight -127 1 0
c p weight -124 1 0
c p weight 124 -1 0
c p weight 130 -1 0
c p weight -130 1 0
c p weight 131 3.673940397442059375002259206809000622711899723162043418511757408850826323032379150390625E-16 0
c p weight -131 1 0
c p weight -128 1 0
c p weight 128 -1 0
c p weight 134 -0.3950720127546685223052236324292607605457305908203125 0
c p weight -134 1 0
c p weight 135 -0.91865015361560520279482489058864302933216094970703125 0
c p weight -135 1 0
c p weight -132 1 0
c p weight 132 -1 0
c p weight -136 1 0
c p weight 136 -1 0
c p weight 141 1 0
c p weight -141 1 0
c p weight 142 0 0
c p weight -142 1 0
c p weight -139 1 0
c p weight 139 -1 0
c p weight 145 6.12323399573676603586882014729198302312846062338790031898128063403419218957424163818359375E-17 0
c p weight -145 1 0
c p weight 146 1 0
c p weight -146 1 0
c p weight -143 1 0
c p weight 143 -1 0
c p weight 149 -0.486641861830141631006796387737267650663852691650390625 0
c p weight -149 1 0
c p weight 150 -0.873601567257347166872705201967619359493255615234375 0
c p weight -150 1 0
c p weight -147 1 0
c p weight 147 -1 0
c p weight 153 6.12323399573676603586882014729198302312846062338790031898128063403419218957424163818359375E-17 0
c p weight -153 1 0
c p weight 154 1 0
c p weight -154 1 0
c p weight -151 1 0
c p weight 151 -1 0
c p weight 157 -1 0
c p weight -157 1 0
c p weight 158 3.673940397442059375002259206809000622711899723162043418511757408850826323032379150390625E-16 0
c p weight -158 1 0
c p weight -155 1 0
c p weight 155 -1 0
c p weight 161 0.957428415249673481213221748475916683673858642578125 0
c p weight -161 1 0
c p weight 162 -0.288670798094470881789419536289642564952373504638671875 0
c p weight -162 1 0
c p weight -159 1 0
c p weight 159 -1 0
c p weight -163 1 0
c p weight 163 -1 0
c p weight 168 1 0
c p weight -168 1 0
c p weight 169 0 0
c p weight -169 1 0
c p weight -166 1 0
c p weight 166 -1 0
c p weight 172 6.12323399573676603586882014729198302312846062338790031898128063403419218957424163818359375E-17 0
c p weight -172 1 0
c p weight 173 1 0
c p weight -173 1 0
c p weight -170 1 0
c p weight 170 -1 0
c p weight 176 -0.9996923050643833352779665801790542900562286376953125 0
c p weight -176 1 0
c p weight 177 -0.0248051445280987915842363378260415629483759403228759765625 0
c p weight -177 1 0
c p weight -174 1 0
c p weight 174 -1 0
c p weight 180 6.12323399573676603586882014729198302312846062338790031898128063403419218957424163818359375E-17 0
c p weight -180 1 0
c p weight 181 1 0
c p weight -181 1 0
c p weight -178 1 0
c p weight 178 -1 0
c p weight 184 -1 0
c p weight -184 1 0
c p weight 185 3.673940397442059375002259206809000622711899723162043418511757408850826323032379150390625E-16 0
c p weight -185 1 0
c p weight -182 1 0
c p weight 182 -1 0
c p weight 188 -0.7602995870341702211447909576236270368099212646484375 0
c p weight -188 1 0
c p weight 189 -0.649572580975882996057180207571946084499359130859375 0
c p weight -189 1 0
c p weight -186 1 0
c p weight 186 -1 0
c p weight -190 1 0
c p weight 190 -1 0
c p weight 195 1 0
c p weight -195 1 0
c p weight 196 0 0
c p weight -196 1 0
c p weight -193 1 0
c p weight 193 -1 0
c p weight 199 6.12323399573676603586882014729198302312846062338790031898128063403419218957424163818359375E-17 0
c p weight -199 1 0
c p weight 200 1 0
c p weight -200 1 0
c p weight -197 1 0
c p weight 197 -1 0
c p weight 203 0.99706717591611571105403299952740781009197235107421875 0
c p weight -203 1 0
c p weight 204 0.0765313446285997012186186339022242464125156402587890625 0
c p weight -204 1 0
c p weight -201 1 0
c p weight 201 -1 0
c p weight 207 6.12323399573676603586882014729198302312846062338790031898128063403419218957424163818359375E-17 0
c p weight -207 1 0
c p weight 208 1 0
c p weight -208 1 0
c p weight -205 1 0
c p weight 205 -1 0
c p weight 211 -1 0
c p weight -211 1 0
c p weight 212 3.673940397442059375002259206809000622711899723162043418511757408850826323032379150390625E-16 0
c p weight -212 1 0
c p weight -209 1 0
c p weight 209 -1 0
c p weight 215 -0.176536506883414434643242429956444539129734039306640625 0
c p weight -215 1 0
c p weight 216 -0.98429409311313154073985742797958664596080780029296875 0
c p weight -216 1 0
c p weight -213 1 0
c p weight 213 -1 0
c p weight -217 1 0
c p weight 217 -1 0
c p weight 222 1 0
c p weight -222 1 0
c p weight 223 0 0
c p weight -223 1 0
c p weight -220 1 0
c p weight 220 -1 0
c p weight 226 6.12323399573676603586882014729198302312846062338790031898128063403419218957424163818359375E-17 0
c p weight -226 1 0
c p weight 227 1 0
c p weight -227 1 0
c p weight -224 1 0
c p weight 224 -1 0
c p weight 230 -0.383385492828330232129019350395537912845611572265625 0
c p weight -230 1 0
c p weight 231 0.92358841693082005530612832444603554904460906982421875 0
c p weight -231 1 0
c p weight -228 1 0
c p weight 228 -1 0
c p weight 234 6.12323399573676603586882014729198302312846062338790031898128063403419218957424163818359375E-17 0
c p weight -234 1 0
c p weight 235 1 0
c p weight -235 1 0
c p weight -232 1 0
c p weight 232 -1 0
c p weight 238 -1 0
c p weight -238 1 0
c p weight 239 3.673940397442059375002259206809000622711899723162043418511757408850826323032379150390625E-16 0
c p weight -239 1 0
c p weight -236 1 0
c p weight 236 -1 0
c p weight 242 -0.260089697491162230580385994471726007759571075439453125 0
c p weight -242 1 0
c p weight 243 0.96558445993033448218056946643628180027008056640625 0
c p weight -243 1 0
c p weight -240 1 0
c p weight 240 -1 0
c p weight -244 1 0
c p weight 244 -1 0
c p weight 249 1 0
c p weight -249 1 0
c p weight 250 0 0
c p weight -250 1 0
c p weight -247 1 0
c p weight 247 -1 0
c p weight 253 6.12323399573676603586882014729198302312846062338790031898128063403419218957424163818359375E-17 0
c p weight -253 1 0
c p weight 254 1 0
c p weight -254 1 0
c p weight -251 1 0
c p weight 251 -1 0
c p weight 257 -0.8694835850581246194934692539391107857227325439453125 0
c p weight -257 1 0
c p weight 258 0.4939618358886352922354490146972239017486572265625 0
c p weight -258 1 0
c p weight -255 1 0
c p weight 255 -1 0
c p weight 261 6.12323399573676603586882014729198302312846062338790031898128063403419218957424163818359375E-17 0
c p weight -261 1 0
c p weight 262 1 0
c p weight -262 1 0
c p weight -259 1 0
c p weight 259 -1 0
c p weight 265 -1 0
c p weight -265 1 0
c p weight 266 3.673940397442059375002259206809000622711899723162043418511757408850826323032379150390625E-16 0
c p weight -266 1 0
c p weight -263 1 0
c p weight 263 -1 0
c p weight 269 0.6268592624517481670665119963814504444599151611328125 0
c p weight -269 1 0
c p weight 270 0.77913250803598887994638744203257374465465545654296875 0
c p weight -270 1 0
c p weight -267 1 0
c p weight 267 -1 0
c p weight -271 1 0
c p weight 271 -1 0
c p weight 276 1 0
c p weight -276 1 0
c p weight 277 0 0
c p weight -277 1 0
c p weight -274 1 0
c p weight 274 -1 0
c p weight 280 6.12323399573676603586882014729198302312846062338790031898128063403419218957424163818359375E-17 0
c p weight -280 1 0
c p weight 281 1 0
c p weight -281 1 0
c p weight -278 1 0
c p weight 278 -1 0
c p weight 284 0.220743702715624878774036687900661490857601165771484375 0
c p weight -284 1 0
c p weight 285 0.97533185004458655686931933814776130020618438720703125 0
c p weight -285 1 0
c p weight -282 1 0
c p weight 282 -1 0
c p weight 288 6.12323399573676603586882014729198302312846062338790031898128063403419218957424163818359375E-17 0
c p weight -288 1 0
c p weight 289 1 0
c p weight -289 1 0
c p weight -286 1 0
c p weight 286 -1 0
c p weight 292 -1 0
c p weight -292 1 0
c p weight 293 3.673940397442059375002259206809000622711899723162043418511757408850826323032379150390625E-16 0
c p weight -293 1 0
c p weight -290 1 0
c p weight 290 -1 0
c p weight 296 -0.69969667950910174880618797033093869686126708984375 0
c p weight -296 1 0
c p weight 297 0.714440030152242666616757560404948890209197998046875 0
c p weight -297 1 0
c p weight -294 1 0
c p weight 294 -1 0
c p weight 300 1 0
c p weight -300 1 0
c p weight 301 0 0
c p weight -301 1 0
c p weight -298 1 0
c p weight 298 -1 0
c p weight 304 6.12323399573676603586882014729198302312846062338790031898128063403419218957424163818359375E-17 0
c p weight -304 1 0
c p weight 305 1 0
c p weight -305 1 0
c p weight -302 1 0
c p weight 302 -1 0
c p weight 308 0.96448382044585267980352227823459543287754058837890625 0
c p weight -308 1 0
c p weight 309 0.264141931730220214102899944919045083224773406982421875 0
c p weight -309 1 0
c p weight -306 1 0
c p weight 306 -1 0
c p weight 312 6.12323399573676603586882014729198302312846062338790031898128063403419218957424163818359375E-17 0
c p weight -312 1 0
c p weight 313 1 0
c p weight -313 1 0
c p weight -310 1 0
c p weight 310 -1 0
c p weight 316 -1 0
c p weight -316 1 0
c p weight 317 3.673940397442059375002259206809000622711899723162043418511757408850826323032379150390625E-16 0
c p weight -317 1 0
c p weight -314 1 0
c p weight 314 -1 0
c p weight 320 -0.458834083137905912597176438794122077524662017822265625 0
c p weight -320 1 0
c p weight 321 -0.8885219660486718407099715477670542895793914794921875 0
c p weight -321 1 0
c p weight -318 1 0
c p weight 318 -1 0
c p weight 322 0.5 0
c p weight -322 1 0
322 0
-5 0
-3 0
-1 0
-7 1 0
-7 2 0
-7 -8 0
7 8 -1 -2 0
8 1 -2 0
-8 1 2 0
-9 1 0
8 -9 -2 0
-8 -9 2 0
8 9 -1 2 0
-8 9 -1 -2 0
-10 1 0
8 -10 2 0
-8 -10 -2 0
8 10 -1 -2 0
-8 10 -1 2 0
-11 12 0
-11 8 0
-11 -1 0
11 -12 1 -8 0
12 -1 8 0
-12 1 8 0
-13 8 0
12 -13 -1 0
-12 -13 1 0
12 13 1 -8 0
-12 13 -1 -8 0
-14 8 0
12 -14 1 0
-12 -14 -1 0
12 14 -1 -8 0
-12 14 1 -8 0
-15 12 0
-15 8 0
-15 -16 0
15 16 -12 -8 0
16 12 -8 0
-16 12 8 0
-17 12 0
16 -17 -8 0
-16 -17 8 0
16 17 -12 8 0
-16 17 -12 -8 0
-18 12 0
16 -18 8 0
-16 -18 -8 0
16 18 -12 -8 0
-16 18 -12 8 0
-19 20 0
-19 16 0
-19 -12 0
19 -20 12 -16 0
20 -12 16 0
-20 12 16 0
-21 16 0
20 -21 -12 0
-20 -21 12 0
20 21 12 -16 0
-20 21 -12 -16 0
-22 16 0
20 -22 12 0
-20 -22 -12 0
20 22 -12 -16 0
-20 22 12 -16 0
-23 20 0
-23 16 0
-23 -24 0
23 24 -20 -16 0
24 20 -16 0
-24 20 16 0
-25 20 0
24 -25 -16 0
-24 -25 16 0
24 25 -20 16 0
-24 25 -20 -16 0
-26 20 0
24 -26 16 0
-24 -26 -16 0
24 26 -20 -16 0
-24 26 -20 16 0
-27 20 0
-27 24 0
-27 -28 0
27 28 -20 -24 0
28 20 -24 0
-28 20 24 0
-29 20 0
28 -29 -24 0
-28 -29 24 0
28 29 -20 24 0
-28 29 -20 -24 0
-30 20 0
28 -30 24 0
-28 -30 -24 0
28 30 -20 -24 0
-28 30 -20 24 0
-31 3 0
-31 4 0
-31 -32 0
31 32 -3 -4 0
32 3 -4 0
-32 3 4 0
-33 3 0
32 -33 -4 0
-32 -33 4 0
32 33 -3 4 0
-32 33 -3 -4 0
-34 3 0
32 -34 4 0
-32 -34 -4 0
32 34 -3 -4 0
-32 34 -3 4 0
-35 36 0
-35 32 0
-35 -3 0
35 -36 3 -32 0
36 -3 32 0
-36 3 32 0
-37 32 0
36 -37 -3 0
-36 -37 3 0
36 37 3 -32 0
-36 37 -3 -32 0
-38 32 0
36 -38 3 0
-36 -38 -3 0
36 38 -3 -32 0
-36 38 3 -32 0
-39 36 0
-39 32 0
-39 -40 0
39 40 -36 -32 0
40 36 -32 0
-40 36 32 0
-41 36 0
40 -41 -32 0
-40 -41 32 0
40 41 -36 32 0
-40 41 -36 -32 0
-42 36 0
40 -42 32 0
-40 -42 -32 0
40 42 -36 -32 0
-40 42 -36 32 0
-43 44 0
-43 40 0
-43 -36 0
43 -44 36 -40 0
44 -36 40 0
-44 36 40 0
-45 40 0
44 -45 -36 0
-44 -45 36 0
44 45 36 -40 0
-44 45 -36 -40 0
-46 40 0
44 -46 36 0
-44 -46 -36 0
44 46 -36 -40 0
-44 46 36 -40 0
-47 44 0
-47 40 0
-47 -48 0
47 48 -44 -40 0
48 44 -40 0
-48 44 40 0
-49 44 0
48 -49 -40 0
-48 -49 40 0
48 49 -44 40 0
-48 49 -44 -40 0
-50 44 0
48 -50 40 0
-48 -50 -40 0
48 50 -44 -40 0
-48 50 -44 40 0
-51 44 0
-51 48 0
-51 -52 0
51 52 -44 -48 0
52 44 -48 0
-52 44 48 0
-53 44 0
52 -53 -48 0
-52 -53 48 0
52 53 -44 48 0
-52 53 -44 -48 0
-54 44 0
52 -54 48 0
-52 -54 -48 0
52 54 -44 -48 0
-52 54 -44 48 0
-55 20 0
-55 52 0
-55 44 -28 0
-55 -44 28 0
55 -20 44 28 -52 0
55 -20 -44 -28 -52 0
57 20 -44 0
57 -20 44 0
-57 20 44 0
-57 -20 -44 0
56 28 -52 0
56 -28 52 0
-56 28 52 0
-56 -28 -52 0
-58 5 0
-58 6 0
-58 -59 0
58 59 -5 -6 0
59 5 -6 0
-59 5 6 0
-60 5 0
59 -60 -6 0
-59 -60 6 0
59 60 -5 6 0
-59 60 -5 -6 0
-61 5 0
59 -61 6 0
-59 -61 -6 0
59 61 -5 -6 0
-59 61 -5 6 0
-62 63 0
-62 59 0
-62 -5 0
62 -63 5 -59 0
63 -5 59 0
-63 5 59 0
-64 59 0
63 -64 -5 0
-63 -64 5 0
63 64 5 -59 0
-63 64 -5 -59 0
-65 59 0
63 -65 5 0
-63 -65 -5 0
63 65 -5 -59 0
-63 65 5 -59 0
-66 63 0
-66 59 0
-66 -67 0
66 67 -63 -59 0
67 63 -59 0
-67 63 59 0
-68 63 0
67 -68 -59 0
-67 -68 59 0
67 68 -63 59 0
-67 68 -63 -59 0
-69 63 0
67 -69 59 0
-67 -69 -59 0
67 69 -63 -59 0
-67 69 -63 59 0
-70 71 0
-70 67 0
-70 -63 0
70 -71 63 -67 0
71 -63 67 0
-71 63 67 0
-72 67 0
71 -72 -63 0
-71 -72 63 0
71 72 63 -67 0
-71 72 -63 -67 0
-73 67 0
71 -73 63 0
-71 -73 -63 0
71 73 -63 -67 0
-71 73 63 -67 0
-74 71 0
-74 67 0
-74 -75 0
74 75 -71 -67 0
75 71 -67 0
-75 71 67 0
-76 71 0
75 -76 -67 0
-75 -76 67 0
75 76 -71 67 0
-75 76 -71 -67 0
-77 71 0
75 -77 67 0
-75 -77 -67 0
75 77 -71 -67 0
-75 77 -71 67 0
-78 71 0
-78 75 0
-78 -79 0
78 79 -71 -75 0
79 71 -75 0
-79 71 75 0
-80 71 0
79 -80 -75 0
-79 -80 75 0
79 80 -71 75 0
-79 80 -71 -75 0
-81 71 0
79 -81 75 0
-79 -81 -75 0
79 81 -71 -75 0
-79 81 -71 75 0
-82 20 0
-82 79 0
-82 71 -56 0
-82 -71 56 0
82 -20 71 56 -79 0
82 -20 -71 -56 -79 0
84 20 -71 0
84 -20 71 0
-84 20 71 0
-84 -20 -71 0
83 56 -79 0
83 -56 79 0
-83 56 79 0
-83 -56 -79 0
-85 20 0
-85 83 0
-85 -86 0
85 86 -20 -83 0
86 20 -83 0
-86 20 83 0
-87 20 0
86 -87 -83 0
-86 -87 83 0
86 87 -20 83 0
-86 87 -20 -83 0
-88 20 0
86 -88 83 0
-86 -88 -83 0
86 88 -20 -83 0
-86 88 -20 83 0
-89 90 0
-89 86 0
-89 -20 0
89 -90 20 -86 0
90 -20 86 0
-90 20 86 0
-91 86 0
90 -91 -20 0
-90 -91 20 0
90 91 20 -86 0
-90 91 -20 -86 0
-92 86 0
90 -92 20 0
-90 -92 -20 0
90 92 -20 -86 0
-90 92 20 -86 0
-93 90 0
-93 86 0
-93 -94 0
93 94 -90 -86 0
94 90 -86 0
-94 90 86 0
-95 90 0
94 -95 -86 0
-94 -95 86 0
94 95 -90 86 0
-94 95 -90 -86 0
-96 90 0
94 -96 86 0
-94 -96 -86 0
94 96 -90 -86 0
-94 96 -90 86 0
-97 98 0
-97 94 0
-97 -90 0
97 -98 90 -94 0
98 -90 94 0
-98 90 94 0
-99 94 0
98 -99 -90 0
-98 -99 90 0
98 99 90 -94 0
-98 99 -90 -94 0
-100 94 0
98 -100 90 0
-98 -100 -90 0
98 100 -90 -94 0
-98 100 90 -94 0
-101 98 0
-101 94 0
-101 -102 0
101 102 -98 -94 0
102 98 -94 0
-102 98 94 0
-103 98 0
102 -103 -94 0
-102 -103 94 0
102 103 -98 94 0
-102 103 -98 -94 0
-104 98 0
102 -104 94 0
-102 -104 -94 0
102 104 -98 -94 0
-102 104 -98 94 0
-105 98 0
-105 102 0
-105 -106 0
105 106 -98 -102 0
106 98 -102 0
-106 98 102 0
-107 98 0
106 -107 -102 0
-106 -107 102 0
106 107 -98 102 0
-106 107 -98 -102 0
-108 98 0
106 -108 102 0
-106 -108 -102 0
106 108 -98 -102 0
-106 108 -98 102 0
-109 57 0
-109 79 0
-109 84 -52 0
-109 -84 52 0
109 -57 84 52 -79 0
109 -57 -84 -52 -79 0
111 57 -84 0
111 -57 84 0
-111 57 84 0
-111 -57 -84 0
110 52 -79 0
110 -52 79 0
-110 52 79 0
-110 -52 -79 0
-112 57 0
-112 110 0
-112 -113 0
112 113 -57 -110 0
113 57 -110 0
-113 57 110 0
-114 57 0
113 -114 -110 0
-113 -114 110 0
113 114 -57 110 0
-113 114 -57 -110 0
-115 57 0
113 -115 110 0
-113 -115 -110 0
113 115 -57 -110 0
-113 115 -57 110 0
-116 117 0
-116 113 0
-116 -57 0
116 -117 57 -113 0
117 -57 113 0
-117 57 113 0
-118 113 0
117 -118 -57 0
-117 -118 57 0
117 118 57 -113 0
-117 118 -57 -113 0
-119 113 0
117 -119 57 0
-117 -119 -57 0
117 119 -57 -113 0
-117 119 57 -113 0
-120 117 0
-120 113 0
-120 -121 0
120 121 -117 -113 0
121 117 -113 0
-121 117 113 0
-122 117 0
121 -122 -113 0
-121 -122 113 0
121 122 -117 113 0
-121 122 -117 -113 0
-123 117 0
121 -123 113 0
-121 -123 -113 0
121 123 -117 -113 0
-121 123 -117 113 0
-124 125 0
-124 121 0
-124 -117 0
124 -125 117 -121 0
125 -117 121 0
-125 117 121 0
-126 121 0
125 -126 -117 0
-125 -126 117 0
125 126 117 -121 0
-125 126 -117 -121 0
-127 121 0
125 -127 117 0
-125 -127 -117 0
125 127 -117 -121 0
-125 127 117 -121 0
-128 125 0
-128 121 0
-128 -129 0
128 129 -125 -121 0
129 125 -121 0
-129 125 121 0
-130 125 0
129 -130 -121 0
-129 -130 121 0
129 130 -125 121 0
-129 130 -125 -121 0
-131 125 0
129 -131 121 0
-129 -131 -121 0
129 131 -125 -121 0
-129 131 -125 121 0
-132 125 0
-132 129 0
-132 -133 0
132 133 -125 -129 0
133 125 -129 0
-133 125 129 0
-134 125 0
133 -134 -129 0
-133 -134 129 0
133 134 -125 129 0
-133 134 -125 -129 0
-135 125 0
133 -135 129 0
-133 -135 -129 0
133 135 -125 -129 0
-133 135 -125 129 0
-136 98 0
-136 133 0
-136 125 -106 0
-136 -125 106 0
136 -98 125 106 -133 0
136 -98 -125 -106 -133 0
138 98 -125 0
138 -98 125 0
-138 98 125 0
-138 -98 -125 0
137 106 -133 0
137 -106 133 0
-137 106 133 0
-137 -106 -133 0
-139 111 0
-139 79 0
-139 -140 0
139 140 -111 -79 0
140 111 -79 0
-140 111 79 0
-141 111 0
140 -141 -79 0
-140 -141 79 0
140 141 -111 79 0
-140 141 -111 -79 0
-142 111 0
140 -142 79 0
-140 -142 -79 0
140 142 -111 -79 0
-140 142 -111 79 0
-143 144 0
-143 140 0
-143 -111 0
143 -144 111 -140 0
144 -111 140 0
-144 111 140 0
-145 140 0
144 -145 -111 0
-144 -145 111 0
144 145 111 -140 0
-144 145 -111 -140 0
-146 140 0
144 -146 111 0
-144 -146 -111 0
144 146 -111 -140 0
-144 146 111 -140 0
-147 144 0
-147 140 0
-147 -148 0
147 148 -144 -140 0
148 144 -140 0
-148 144 140 0
-149 144 0
148 -149 -140 0
-148 -149 140 0
148 149 -144 140 0
-148 149 -144 -140 0
-150 144 0
148 -150 140 0
-148 -150 -140 0
148 150 -144 -140 0
-148 150 -144 140 0
-151 152 0
-151 148 0
-151 -144 0
151 -152 144 -148 0
152 -144 148 0
-152 144 148 0
-153 148 0
152 -153 -144 0
-152 -153 144 0
152 153 144 -148 0
-152 153 -144 -148 0
-154 148 0
152 -154 144 0
-152 -154 -144 0
152 154 -144 -148 0
-152 154 144 -148 0
-155 152 0
-155 148 0
-155 -156 0
155 156 -152 -148 0
156 152 -148 0
-156 152 148 0
-157 152 0
156 -157 -148 0
-156 -157 148 0
156 157 -152 148 0
-156 157 -152 -148 0
-158 152 0
156 -158 148 0
-156 -158 -148 0
156 158 -152 -148 0
-156 158 -152 148 0
-159 152 0
-159 156 0
-159 -160 0
159 160 -152 -156 0
160 152 -156 0
-160 152 156 0
-161 152 0
160 -161 -156 0
-160 -161 156 0
160 161 -152 156 0
-160 161 -152 -156 0
-162 152 0
160 -162 156 0
-160 -162 -156 0
160 162 -152 -156 0
-160 162 -152 156 0
-163 98 0
-163 160 0
-163 152 -137 0
-163 -152 137 0
163 -98 152 137 -160 0
163 -98 -152 -137 -160 0
165 98 -152 0
165 -98 152 0
-165 98 152 0
-165 -98 -152 0
164 137 -160 0
164 -137 160 0
-164 137 160 0
-164 -137 -160 0
-166 98 0
-166 164 0
-166 -167 0
166 167 -98 -164 0
167 98 -164 0
-167 98 164 0
-168 98 0
167 -168 -164 0
-167 -168 164 0
167 168 -98 164 0
-167 168 -98 -164 0
-169 98 0
167 -169 164 0
-167 -169 -164 0
167 169 -98 -164 0
-167 169 -98 164 0
-170 171 0
-170 167 0
-170 -98 0
170 -171 98 -167 0
171 -98 167 0
-171 98 167 0
-172 167 0
171 -172 -98 0
-171 -172 98 0
171 172 98 -167 0
-171 172 -98 -167 0
-173 167 0
171 -173 98 0
-171 -173 -98 0
171 173 -98 -167 0
-171 173 98 -167 0
-174 171 0
-174 167 0
-174 -175 0
174 175 -171 -167 0
175 171 -167 0
-175 171 167 0
-176 171 0
175 -176 -167 0
-175 -176 167 0
175 176 -171 167 0
-175 176 -171 -167 0
-177 171 0
175 -177 167 0
-175 -177 -167 0
175 177 -171 -167 0
-175 177 -171 167 0
-178 179 0
-178 175 0
-178 -171 0
178 -179 171 -175 0
179 -171 175 0
-179 171 175 0
-180 175 0
179 -180 -171 0
-179 -180 171 0
179 180 171 -175 0
-179 180 -171 -175 0
-181 175 0
179 -181 171 0
-179 -181 -171 0
179 181 -171 -175 0
-179 181 171 -175 0
-182 179 0
-182 175 0
-182 -183 0
182 183 -179 -175 0
183 179 -175 0
-183 179 175 0
-184 179 0
183 -184 -175 0
-183 -184 175 0
183 184 -179 175 0
-183 184 -179 -175 0
-185 179 0
183 -185 175 0
-183 -185 -175 0
183 185 -179 -175 0
-183 185 -179 175 0
-186 179 0
-186 183 0
-186 -187 0
186 187 -179 -183 0
187 179 -183 0
-187 179 183 0
-188 179 0
187 -188 -183 0
-187 -188 183 0
187 188 -179 183 0
-187 188 -179 -183 0
-189 179 0
187 -189 183 0
-187 -189 -183 0
187 189 -179 -183 0
-187 189 -179 183 0
-190 138 0
-190 160 0
-190 165 -133 0
-190 -165 133 0
190 -138 165 133 -160 0
190 -138 -165 -133 -160 0
192 138 -165 0
192 -138 165 0
-192 138 165 0
-192 -138 -165 0
191 133 -160 0
191 -133 160 0
-191 133 160 0
-191 -133 -160 0
-193 138 0
-193 191 0
-193 -194 0
193 194 -138 -191 0
194 138 -191 0
-194 138 191 0
-195 138 0
194 -195 -191 0
-194 -195 191 0
194 195 -138 191 0
-194 195 -138 -191 0
-196 138 0
194 -196 191 0
-194 -196 -191 0
194 196 -138 -191 0
-194 196 -138 191 0
-197 198 0
-197 194 0
-197 -138 0
197 -198 138 -194 0
198 -138 194 0
-198 138 194 0
-199 194 0
198 -199 -138 0
-198 -199 138 0
198 199 138 -194 0
-198 199 -138 -194 0
-200 194 0
198 -200 138 0
-198 -200 -138 0
198 200 -138 -194 0
-198 200 138 -194 0
-201 198 0
-201 194 0
-201 -202 0
201 202 -198 -194 0
202 198 -194 0
-202 198 194 0
-203 198 0
202 -203 -194 0
-202 -203 194 0
202 203 -198 194 0
-202 203 -198 -194 0
-204 198 0
202 -204 194 0
-202 -204 -194 0
202 204 -198 -194 0
-202 204 -198 194 0
-205 206 0
-205 202 0
-205 -198 0
205 -206 198 -202 0
206 -198 202 0
-206 198 202 0
-207 202 0
206 -207 -198 0
-206 -207 198 0
206 207 198 -202 0
-206 207 -198 -202 0
-208 202 0
206 -208 198 0
-206 -208 -198 0
206 208 -198 -202 0
-206 208 198 -202 0
-209 206 0
-209 202 0
-209 -210 0
209 210 -206 -202 0
210 206 -202 0
-210 206 202 0
-211 206 0
210 -211 -202 0
-210 -211 202 0
210 211 -206 202 0
-210 211 -206 -202 0
-212 206 0
210 -212 202 0
-210 -212 -202 0
210 212 -206 -202 0
-210 212 -206 202 0
-213 206 0
-213 210 0
-213 -214 0
213 214 -206 -210 0
214 206 -210 0
-214 206 210 0
-215 206 0
214 -215 -210 0
-214 -215 210 0
214 215 -206 210 0
-214 215 -206 -210 0
-216 206 0
214 -216 210 0
-214 -216 -210 0
214 216 -206 -210 0
-214 216 -206 210 0
-217 179 0
-217 214 0
-217 206 -187 0
-217 -206 187 0
217 -179 206 187 -214 0
217 -179 -206 -187 -214 0
219 179 -206 0
219 -179 206 0
-219 179 206 0
-219 -179 -206 0
218 187 -214 0
218 -187 214 0
-218 187 214 0
-218 -187 -214 0
-220 192 0
-220 160 0
-220 -221 0
220 221 -192 -160 0
221 192 -160 0
-221 192 160 0
-222 192 0
221 -222 -160 0
-221 -222 160 0
221 222 -192 160 0
-221 222 -192 -160 0
-223 192 0
221 -223 160 0
-221 -223 -160 0
221 223 -192 -160 0
-221 223 -192 160 0
-224 225 0
-224 221 0
-224 -192 0
224 -225 192 -221 0
225 -192 221 0
-225 192 221 0
-226 221 0
225 -226 -192 0
-225 -226 192 0
225 226 192 -221 0
-225 226 -192 -221 0
-227 221 0
225 -227 192 0
-225 -227 -192 0
225 227 -192 -221 0
-225 227 192 -221 0
-228 225 0
-228 221 0
-228 -229 0
228 229 -225 -221 0
229 225 -221 0
-229 225 221 0
-230 225 0
229 -230 -221 0
-229 -230 221 0
229 230 -225 221 0
-229 230 -225 -221 0
-231 225 0
229 -231 221 0
-229 -231 -221 0
229 231 -225 -221 0
-229 231 -225 221 0
-232 233 0
-232 229 0
-232 -225 0
232 -233 225 -229 0
233 -225 229 0
-233 225 229 0
-234 229 0
233 -234 -225 0
-233 -234 225 0
233 234 225 -229 0
-233 234 -225 -229 0
-235 229 0
233 -235 225 0
-233 -235 -225 0
233 235 -225 -229 0
-233 235 225 -229 0
-236 233 0
-236 229 0
-236 -237 0
236 237 -233 -229 0
237 233 -229 0
-237 233 229 0
-238 233 0
237 -238 -229 0
-237 -238 229 0
237 238 -233 229 0
-237 238 -233 -229 0
-239 233 0
237 -239 229 0
-237 -239 -229 0
237 239 -233 -229 0
-237 239 -233 229 0
-240 233 0
-240 237 0
-240 -241 0
240 241 -233 -237 0
241 233 -237 0
-241 233 237 0
-242 233 0
241 -242 -237 0
-241 -242 237 0
241 242 -233 237 0
-241 242 -233 -237 0
-243 233 0
241 -243 237 0
-241 -243 -237 0
241 243 -233 -237 0
-241 243 -233 237 0
-244 179 0
-244 241 0
-244 233 -218 0
-244 -233 218 0
244 -179 233 218 -241 0
244 -179 -233 -218 -241 0
246 179 -233 0
246 -179 233 0
-246 179 233 0
-246 -179 -233 0
245 218 -241 0
245 -218 241 0
-245 218 241 0
-245 -218 -241 0
-247 179 0
-247 245 0
-247 -248 0
247 248 -179 -245 0
248 179 -245 0
-248 179 245 0
-249 179 0
248 -249 -245 0
-248 -249 245 0
248 249 -179 245 0
-248 249 -179 -245 0
-250 179 0
248 -250 245 0
-248 -250 -245 0
248 250 -179 -245 0
-248 250 -179 245 0
-251 252 0
-251 248 0
-251 -179 0
251 -252 179 -248 0
252 -179 248 0
-252 179 248 0
-253 248 0
252 -253 -179 0
-252 -253 179 0
252 253 179 -248 0
-252 253 -179 -248 0
-254 248 0
252 -254 179 0
-252 -254 -179 0
252 254 -179 -248 0
-252 254 179 -248 0
-255 252 0
-255 248 0
-255 -256 0
255 256 -252 -248 0
256 252 -248 0
-256 252 248 0
-257 252 0
256 -257 -248 0
-256 -257 248 0
256 257 -252 248 0
-256 257 -252 -248 0
-258 252 0
256 -258 248 0
-256 -258 -248 0
256 258 -252 -248 0
-256 258 -252 248 0
-259 260 0
-259 256 0
-259 -252 0
259 -260 252 -256 0
260 -252 256 0
-260 252 256 0
-261 256 0
260 -261 -252 0
-260 -261 252 0
260 261 252 -256 0
-260 261 -252 -256 0
-262 256 0
260 -262 252 0
-260 -262 -252 0
260 262 -252 -256 0
-260 262 252 -256 0
-263 260 0
-263 256 0
-263 -264 0
263 264 -260 -256 0
264 260 -256 0
-264 260 256 0
-265 260 0
264 -265 -256 0
-264 -265 256 0
264 265 -260 256 0
-264 265 -260 -256 0
-266 260 0
264 -266 256 0
-264 -266 -256 0
264 266 -260 -256 0
-264 266 -260 256 0
-267 260 0
-267 264 0
-267 -268 0
267 268 -260 -264 0
268 260 -264 0
-268 260 264 0
-269 260 0
268 -269 -264 0
-268 -269 264 0
268 269 -260 264 0
-268 269 -260 -264 0
-270 260 0
268 -270 264 0
-268 -270 -264 0
268 270 -260 -264 0
-268 270 -260 264 0
-271 219 0
-271 241 0
-271 246 -214 0
-271 -246 214 0
271 -219 246 214 -241 0
271 -219 -246 -214 -241 0
273 219 -246 0
273 -219 246 0
-273 219 246 0
-273 -219 -246 0
272 214 -241 0
272 -214 241 0
-272 214 241 0
-272 -214 -241 0
-274 219 0
-274 272 0
-274 -275 0
274 275 -219 -272 0
275 219 -272 0
-275 219 272 0
-276 219 0
275 -276 -272 0
-275 -276 272 0
275 276 -219 272 0
-275 276 -219 -272 0
-277 219 0
275 -277 272 0
-275 -277 -272 0
275 277 -219 -272 0
-275 277 -219 272 0
-278 279 0
-278 275 0
-278 -219 0
278 -279 219 -275 0
279 -219 275 0
-279 219 275 0
-280 275 0
279 -280 -219 0
-279 -280 219 0
279 280 219 -275 0
-279 280 -219 -275 0
-281 275 0
279 -281 219 0
-279 -281 -219 0
279 281 -219 -275 0
-279 281 219 -275 0
-282 279 0
-282 275 0
-282 -283 0
282 283 -279 -275 0
283 279 -275 0
-283 279 275 0
-284 279 0
283 -284 -275 0
-283 -284 275 0
283 284 -279 275 0
-283 284 -279 -275 0
-285 279 0
283 -285 275 0
-283 -285 -275 0
283 285 -279 -275 0
-283 285 -279 275 0
-286 287 0
-286 283 0
-286 -279 0
286 -287 279 -283 0
287 -279 283 0
-287 279 283 0
-288 283 0
287 -288 -279 0
-287 -288 279 0
287 288 279 -283 0
-287 288 -279 -283 0
-289 283 0
287 -289 279 0
-287 -289 -279 0
287 289 -279 -283 0
-287 289 279 -283 0
-290 287 0
-290 283 0
-290 -291 0
290 291 -287 -283 0
291 287 -283 0
-291 287 283 0
-292 287 0
291 -292 -283 0
-291 -292 283 0
291 292 -287 283 0
-291 292 -287 -283 0
-293 287 0
291 -293 283 0
-291 -293 -283 0
291 293 -287 -283 0
-291 293 -287 283 0
-294 287 0
-294 291 0
-294 -295 0
294 295 -287 -291 0
295 287 -291 0
-295 287 291 0
-296 287 0
295 -296 -291 0
-295 -296 291 0
295 296 -287 291 0
-295 296 -287 -291 0
-297 287 0
295 -297 291 0
-295 -297 -291 0
295 297 -287 -291 0
-295 297 -287 291 0
-298 273 0
-298 241 0
-298 -299 0
298 299 -273 -241 0
299 273 -241 0
-299 273 241 0
-300 273 0
299 -300 -241 0
-299 -300 241 0
299 300 -273 241 0
-299 300 -273 -241 0
-301 273 0
299 -301 241 0
-299 -301 -241 0
299 301 -273 -241 0
-299 301 -273 241 0
-302 303 0
-302 299 0
-302 -273 0
302 -303 273 -299 0
303 -273 299 0
-303 273 299 0
-304 299 0
303 -304 -273 0
-303 -304 273 0
303 304 273 -299 0
-303 304 -273 -299 0
-305 299 0
303 -305 273 0
-303 -305 -273 0
303 305 -273 -299 0
-303 305 273 -299 0
-306 303 0
-306 299 0
-306 -307 0
306 307 -303 -299 0
307 303 -299 0
-307 303 299 0
-308 303 0
307 -308 -299 0
-307 -308 299 0
307 308 -303 299 0
-307 308 -303 -299 0
-309 303 0
307 -309 299 0
-307 -309 -299 0
307 309 -303 -299 0
-307 309 -303 299 0
-310 311 0
-310 307 0
-310 -303 0
310 -311 303 -307 0
311 -303 307 0
-311 303 307 0
-312 307 0
311 -312 -303 0
-311 -312 303 0
311 312 303 -307 0
-311 312 -303 -307 0
-313 307 0
311 -313 303 0
-311 -313 -303 0
311 313 -303 -307 0
-311 313 303 -307 0
-314 311 0
-314 307 0
-314 -315 0
314 315 -311 -307 0
315 311 -307 0
-315 311 307 0
-316 311 0
315 -316 -307 0
-315 -316 307 0
315 316 -311 307 0
-315 316 -311 -307 0
-317 311 0
315 -317 307 0
-315 -317 -307 0
315 317 -311 -307 0
-315 317 -311 307 0
-318 311 0
-318 315 0
-318 -319 0
318 319 -311 -315 0
319 311 -315 0
-319 311 315 0
-320 311 0
319 -320 -315 0
-319 -320 315 0
319 320 -311 315 0
-319 320 -311 -315 0
-321 311 0
319 -321 315 0
-319 -321 -315 0
319 321 -311 -315 0
-319 321 -311 315 0
-260 0
-287 0
-295 0
-311 0
-319 0
