wmc_benchmarks/MQTBench/su2random_nativegates_ibm_qiskit_opt0_3.qasm
// Used Gate Set: ['id', 'rz', 'sx', 'x', 'cx', 'measure', 'barrier']
OPENQASM 2.0;
include "qelib1.inc";
qreg q[3];
rz(0) q[0];
rx(0.5*pi) q[0];
rz(7.987943186487718) q[0];
rx(0.5*pi) q[0];
rz(3*pi) q[0];
rz(4.704873552725635) q[0];
rz(0) q[1];
rx(0.5*pi) q[1];
rz(3.2719809969001195) q[1];
rx(0.5*pi) q[1];
rz(3*pi) q[1];
rz(3.1322119352256292) q[1];
cx q[0],q[1];
rz(0) q[2];
rx(0.5*pi) q[2];
rz(7.122921933198846) q[2];
rx(0.5*pi) q[2];
rz(3*pi) q[2];
rz(1.4124389803026796) q[2];
cx q[0],q[2];
rz(0) q[0];
rx(0.5*pi) q[0];
rz(4.38605833534536) q[0];
rx(0.5*pi) q[0];
rz(3*pi) q[0];
rz(0.5550554224571163) q[0];
cx q[1],q[2];
rz(0) q[1];
rx(0.5*pi) q[1];
rz(7.920148050137117) q[1];
rx(0.5*pi) q[1];
rz(3*pi) q[1];
rz(4.306242740899814) q[1];
cx q[0],q[1];
rz(0) q[2];
rx(0.5*pi) q[2];
rz(4.2041473771643645) q[2];
rx(0.5*pi) q[2];
rz(3*pi) q[2];
rz(5.990347064774806) q[2];
cx q[0],q[2];
rz(0) q[0];
rx(0.5*pi) q[0];
rz(3.166400342570177) q[0];
rx(0.5*pi) q[0];
rz(3*pi) q[0];
rz(3.848614783366913) q[0];
cx q[1],q[2];
rz(0) q[1];
rx(0.5*pi) q[1];
rz(6.3597915573463615) q[1];
rx(0.5*pi) q[1];
rz(3*pi) q[1];
rz(4.534922405866221) q[1];
cx q[0],q[1];
rz(0) q[2];
rx(0.5*pi) q[2];
rz(8.247440740148498) q[2];
rx(0.5*pi) q[2];
rz(3*pi) q[2];
rz(1.8339114230470697) q[2];
cx q[0],q[2];
rz(0) q[0];
rx(0.5*pi) q[0];
rz(8.908137535472758) q[0];
rx(0.5*pi) q[0];
rz(3*pi) q[0];
rz(0.8932807542109366) q[0];
cx q[1],q[2];
rz(0) q[1];
rx(0.5*pi) q[1];
rz(7.631404716700505) q[1];
rx(0.5*pi) q[1];
rz(3*pi) q[1];
rz(2.345769178126651) q[1];
rz(0) q[2];
rx(0.5*pi) q[2];
rz(6.550499455171185) q[2];
rx(0.5*pi) q[2];
rz(3*pi) q[2];
rz(4.2357064252607195) q[2];
